<number of tasks>
50

<cycle time>
1000

<order strength>
0.598


<task times>
1 32
2 214
3 261
4 178
5 180
6 136
7 48
8 254
9 183
10 21
11 40
12 246
13 54
14 336
15 32
16 171
17 123
18 237
19 58
20 168
21 259
22 180
23 190
24 311
25 322
26 95
27 199
28 47
29 150
30 184
31 97
32 163
33 79
34 45
35 64
36 91
37 123
38 29
39 23
40 79
41 398
42 314
43 150
44 149
45 111
46 180
47 121
48 54
49 43
50 169

<precedence relations>
1,7
2,4
2,5
2,6
2,14
3,4
3,7
3,8
4,9
5,10
5,23
6,9
6,23
7,12
7,13
7,14
8,11
8,14
8,22
9,15
9,17
9,18
10,18
11,15
11,16
11,20
12,15
13,16
13,17
13,18
14,16
14,24
15,19
15,30
16,23
17,19
17,20
17,22
17,24
18,19
18,21
19,41
21,25
22,26
23,26
24,39
24,50
25,28
25,31
25,32
26,27
26,29
26,30
26,34
27,44
28,34
28,36
30,35
30,36
30,42
31,33
31,45
32,49
33,37
33,38
33,42
34,37
34,39
34,44
35,37
35,38
35,40
36,41
37,43
37,47
38,44
38,47
39,46
40,45
40,49
41,48
42,47
43,49
45,50
46,48
46,49
47,49

<end>
